Version identifier: 22.1.0.0 | 2022-03-09 | 1a383f8ce
CPXPARAM_Read_DataCheck                          1
Tried aggregator 4 times.
MIP Presolve eliminated 49740 rows and 5656 columns.
MIP Presolve modified 705 coefficients.
Aggregator did 45378 substitutions.
Reduced MIP has 5967 rows, 46466 columns, and 98980 nonzeros.
Reduced MIP has 46436 binaries, 30 generals, 0 SOSs, and 0 indicators.
Presolve time = 0.53 sec. (547.10 ticks)
Tried aggregator 1 time.
Detecting symmetries...
Reduced MIP has 5967 rows, 46466 columns, and 98980 nonzeros.
Reduced MIP has 46436 binaries, 30 generals, 0 SOSs, and 0 indicators.
Presolve time = 0.08 sec. (72.56 ticks)
Probing fixed 46 vars, tightened 0 bounds.
Probing time = 0.24 sec. (29.15 ticks)
Clique table members: 94237.
MIP emphasis: balance optimality and feasibility.
MIP search method: dynamic search.
Parallel mode: deterministic, using up to 8 threads.
Root relaxation solution time = 0.62 sec. (368.41 ticks)

        Nodes                                         Cuts/
   Node  Left     Objective  IInf  Best Integer    Best Bound    ItCnt     Gap

      0     0       30.4003  4344                     30.4003     5214         
      0     0       49.0000   819                    Cuts: 49    12160         
      0     0       49.0000   854                    Cuts: 61    17252         
      0     0       49.0000   785                 ZeroHalf: 6    19400         
      0     0       49.0000   942                ZeroHalf: 34    25998         
Heuristic still looking.
Heuristic still looking.
*     0+    0                           55.0000       49.0000            10.91%
*     0+    0                           54.0000       49.0000             9.26%
*     0+    0                           53.0000       49.0000             7.55%
      0     0  -1.00000e+75     0       53.0000       49.0000    25998    7.55%
      0     2       49.0000   746       53.0000       49.0000    25998    7.55%
Elapsed time = 182.05 sec. (60568.34 ticks, tree = 0.02 MB, solutions = 3)
      1     3       49.0000   629       53.0000       49.0000    34622    7.55%
      2     4       49.0000   480       53.0000       49.0000    40317    7.55%
*     3+    1                           52.0000       49.0000             5.77%
      3     5       49.0417   756       52.0000       49.0000    45203    5.77%
      5     6       49.0435   769       52.0000       49.0000    47718    5.77%
      6     8       49.0435   771       52.0000       49.0000    56308    5.77%
      7     9       49.0435   859       52.0000       49.0000    64626    5.77%
      8     7       49.0000   580       52.0000       49.0000    57537    5.77%
     10    10       49.0435  1193       52.0000       49.0000    68636    5.77%
     12    13       49.0435  1053       52.0000       49.0000    75108    5.77%
*    13+    6                           51.0000       49.0000             3.92%
     13     7       49.0000   629       51.0000       49.0000    55892    3.92%
Elapsed time = 221.76 sec. (81156.45 ticks, tree = 0.02 MB, solutions = 4)
     19    15       49.0435   827       51.0000       49.0000    79827    3.92%
     25     5       49.0000   543       51.0000       49.0000    43659    3.92%
     30    15       49.0000   867       51.0000       49.0000    82205    3.92%
     40    36       49.0909   670       51.0000       49.0000   151714    3.92%
     54    29       49.0476  1082       51.0000       49.0000   152026    3.92%
     69    50       49.0455  1012       51.0000       49.0000   245321    3.92%
     83     6       49.0500   631       51.0000       49.0000    50192    3.92%
*   114    63      integral     0       50.0000       49.0000   366025    2.00%
    114    61       50.0000     0       50.0000       49.0000   366025    2.00%
    127    50       49.0000   980       50.0000       49.0000   496455    2.00%
    139    84       49.1429   805       50.0000       49.0000   477593    2.00%
Elapsed time = 257.43 sec. (91765.55 ticks, tree = 0.97 MB, solutions = 9)
    149    51       49.0455   767       50.0000       49.0000   257670    2.00%
    157    40        cutoff             50.0000       49.0000   556642    2.00%
    161    16    infeasible             50.0000       49.0000   694245    2.00%
    164    48        cutoff             50.0000       49.0000   511833    2.00%
    168    49        cutoff             50.0000       49.0000   519565    2.00%
    171    34    infeasible             50.0000       49.0000   555419    2.00%
    173    12        cutoff             50.0000       49.0000   756825    2.00%
    174    33       49.0000   565       50.0000       49.0000   565308    2.00%

Zero-half cuts applied:  87
Lift and project cuts applied:  4
Gomory fractional cuts applied:  21

Root node processing (before b&c):
  Real time             =  181.85 sec. (60498.83 ticks)
Parallel b&c, 8 threads:
  Real time             =  108.62 sec. (45852.81 ticks)
  Sync time (average)   =   36.30 sec.
  Wait time (average)   =    0.00 sec.
                          ------------
Total (root+branch&cut) =  290.47 sec. (106351.64 ticks)
